c "106530.clq"
p edge 150 584
e 1 5
e 1 11
e 1 21
e 1 25
e 1 44
e 1 48
e 1 87
e 1 123
e 1 137
e 1 139
e 2 5
e 2 6
e 2 7
e 2 8
e 2 10
e 2 26
e 2 27
e 2 48
e 2 61
e 2 70
e 2 87
e 2 89
e 2 98
e 2 103
e 2 149
e 2 150
e 3 5
e 3 6
e 3 7
e 3 8
e 3 9
e 3 19
e 3 22
e 3 54
e 3 92
e 3 93
e 3 117
e 4 5
e 4 6
e 4 9
e 4 13
e 4 24
e 4 54
e 4 58
e 4 73
e 4 99
e 4 105
e 4 112
e 4 120
e 4 124
e 4 133
e 4 142
e 5 6
e 5 7
e 5 8
e 5 10
e 5 11
e 5 12
e 5 13
e 5 14
e 5 15
e 5 17
e 5 19
e 5 21
e 5 22
e 5 27
e 5 28
e 5 32
e 5 34
e 5 38
e 5 41
e 5 43
e 5 46
e 5 49
e 5 54
e 5 60
e 5 64
e 5 73
e 5 77
e 5 79
e 5 85
e 5 90
e 5 100
e 5 101
e 5 102
e 5 108
e 5 114
e 5 123
e 5 129
e 5 136
e 5 138
e 5 144
e 6 7
e 6 9
e 6 10
e 6 11
e 6 12
e 6 13
e 6 14
e 6 15
e 6 19
e 6 20
e 6 22
e 6 23
e 6 30
e 6 32
e 6 34
e 6 72
e 6 84
e 6 92
e 6 94
e 6 96
e 6 114
e 6 122
e 6 133
e 6 140
e 6 141
e 6 148
e 7 8
e 7 9
e 7 12
e 7 15
e 7 16
e 7 17
e 7 31
e 7 37
e 7 39
e 7 40
e 7 51
e 7 53
e 7 59
e 7 60
e 7 61
e 7 67
e 7 68
e 7 78
e 7 95
e 7 96
e 7 105
e 7 107
e 7 108
e 7 109
e 7 115
e 7 124
e 7 128
e 7 129
e 7 130
e 7 138
e 7 145
e 8 10
e 8 12
e 8 13
e 8 16
e 8 18
e 8 21
e 8 27
e 8 51
e 8 57
e 8 68
e 8 69
e 8 71
e 8 74
e 8 92
e 8 93
e 8 95
e 8 101
e 8 109
e 8 119
e 8 144
e 9 14
e 9 17
e 9 18
e 9 20
e 9 21
e 9 22
e 9 24
e 9 32
e 9 37
e 9 41
e 9 42
e 9 43
e 9 46
e 9 50
e 9 51
e 9 52
e 9 53
e 9 58
e 9 62
e 9 63
e 9 69
e 9 73
e 9 74
e 9 80
e 9 82
e 9 86
e 9 88
e 9 94
e 9 96
e 9 97
e 9 107
e 9 135
e 9 137
e 9 149
e 10 11
e 10 14
e 10 15
e 10 17
e 10 18
e 10 23
e 10 26
e 10 27
e 10 29
e 10 33
e 10 37
e 10 45
e 10 46
e 10 50
e 10 57
e 10 63
e 10 65
e 10 66
e 10 67
e 10 68
e 10 70
e 10 113
e 10 118
e 10 125
e 10 130
e 10 138
e 11 16
e 11 19
e 11 29
e 11 42
e 11 48
e 11 53
e 11 70
e 11 71
e 11 97
e 11 141
e 12 16
e 12 18
e 12 20
e 12 26
e 12 31
e 12 35
e 12 38
e 12 54
e 12 123
e 12 135
e 12 147
e 13 35
e 13 44
e 13 47
e 13 58
e 13 80
e 13 88
e 13 126
e 13 142
e 14 30
e 14 39
e 14 44
e 14 62
e 14 75
e 14 78
e 14 102
e 14 118
e 14 143
e 15 35
e 15 36
e 15 76
e 15 122
e 16 28
e 17 23
e 17 24
e 17 29
e 17 34
e 17 41
e 17 55
e 17 62
e 17 65
e 17 72
e 17 75
e 17 85
e 17 96
e 17 120
e 17 128
e 18 23
e 18 25
e 18 28
e 18 33
e 18 36
e 18 40
e 18 61
e 18 91
e 18 98
e 19 20
e 19 24
e 19 45
e 19 47
e 19 63
e 19 65
e 19 67
e 19 76
e 19 77
e 19 100
e 19 103
e 19 110
e 19 116
e 19 124
e 19 128
e 19 135
e 19 147
e 19 150
e 20 50
e 20 99
e 21 32
e 21 33
e 21 39
e 21 40
e 21 47
e 21 48
e 21 55
e 21 59
e 21 66
e 21 111
e 21 132
e 22 25
e 22 30
e 22 33
e 22 37
e 22 41
e 22 44
e 22 49
e 22 51
e 22 63
e 22 68
e 22 72
e 22 74
e 22 76
e 22 78
e 22 83
e 22 84
e 22 111
e 22 115
e 22 134
e 23 45
e 23 57
e 23 72
e 23 87
e 23 112
e 23 122
e 24 25
e 24 26
e 24 30
e 24 40
e 24 42
e 24 55
e 24 60
e 24 75
e 24 106
e 25 28
e 25 43
e 25 49
e 25 53
e 25 83
e 25 141
e 26 31
e 27 52
e 27 56
e 27 95
e 27 126
e 27 149
e 28 29
e 28 31
e 28 36
e 29 36
e 29 133
e 30 56
e 30 58
e 30 66
e 31 34
e 31 39
e 31 91
e 32 38
e 32 43
e 32 70
e 32 93
e 33 52
e 33 80
e 33 97
e 33 111
e 33 126
e 33 136
e 33 144
e 34 35
e 34 49
e 34 110
e 35 38
e 35 61
e 36 83
e 36 84
e 36 113
e 36 125
e 37 42
e 37 56
e 37 71
e 37 80
e 37 84
e 37 109
e 37 116
e 37 127
e 38 46
e 38 129
e 38 140
e 39 45
e 39 52
e 39 64
e 39 82
e 39 94
e 39 102
e 40 55
e 40 148
e 41 81
e 41 106
e 42 64
e 42 87
e 42 99
e 42 101
e 42 140
e 42 143
e 43 60
e 43 88
e 43 100
e 43 116
e 44 50
e 44 64
e 44 106
e 44 110
e 45 47
e 45 57
e 45 62
e 45 89
e 46 85
e 46 103
e 46 104
e 46 117
e 46 134
e 47 71
e 47 104
e 47 113
e 48 74
e 48 95
e 48 100
e 48 112
e 48 116
e 48 123
e 49 73
e 49 133
e 49 145
e 50 144
e 53 67
e 53 98
e 53 115
e 54 56
e 54 81
e 54 106
e 54 110
e 54 141
e 55 66
e 55 69
e 55 132
e 55 142
e 56 59
e 57 59
e 57 77
e 57 117
e 57 120
e 59 86
e 59 89
e 59 94
e 59 129
e 59 146
e 59 150
e 60 121
e 61 65
e 63 69
e 63 77
e 63 81
e 63 83
e 63 85
e 63 121
e 63 125
e 63 131
e 63 143
e 64 79
e 64 149
e 65 138
e 66 86
e 66 88
e 66 89
e 66 98
e 66 104
e 67 92
e 67 126
e 67 145
e 68 113
e 68 115
e 69 79
e 70 132
e 70 137
e 71 101
e 71 108
e 71 131
e 71 135
e 71 140
e 72 107
e 73 78
e 73 79
e 73 82
e 73 93
e 74 75
e 74 76
e 75 118
e 76 136
e 77 90
e 77 91
e 77 97
e 77 125
e 77 128
e 77 131
e 78 90
e 78 127
e 78 146
e 80 81
e 81 82
e 81 91
e 82 90
e 83 102
e 83 104
e 83 111
e 83 114
e 84 105
e 84 107
e 84 108
e 84 109
e 84 127
e 85 86
e 85 105
e 88 99
e 88 112
e 88 114
e 88 119
e 91 146
e 92 121
e 93 122
e 94 103
e 96 150
e 97 118
e 97 119
e 98 119
e 98 120
e 98 134
e 98 136
e 98 139
e 99 148
e 100 134
e 100 146
e 102 137
e 103 132
e 103 142
e 104 124
e 105 145
e 107 139
e 108 117
e 112 121
e 115 139
e 118 127
e 118 130
e 120 143
e 121 147
e 123 131
e 126 147
e 128 130
e 138 148
